Mack/Bortfeldt(2008)
Bin-Packing-Problem
BP-RG/SBSBPP/SSSCSP
Testcase-ID	5
Problem-ID	55
no_item_types	15
no_items	2144
CONTAINER_DATA (l,w,h)	459	105	93
ITEMS_DATA:
Type	x	y	z	no_items
1	100	80	72	136
2	83	80	57	127
3	109	58	54	155
4	87	77	43	165
5	93	93	28	144
6	104	78	26	124
7	88	54	39	130
8	94	54	36	136
9	94	55	30	167
10	71	56	33	125
11	83	40	36	131
12	108	40	26	159
13	91	54	22	157
14	72	37	32	147
15	34	32	31	141
